90 4005
1 2 251
1 3 22
1 4 122
1 5 163
1 6 42
1 7 63
1 8 215
1 9 62
1 10 264
1 11 46
1 12 140
1 13 90
1 14 19
1 15 152
1 16 244
1 17 241
1 18 202
1 19 99
1 20 58
1 21 159
1 22 126
1 23 7
1 24 129
1 25 234
1 26 35
1 27 15
1 28 50
1 29 28
1 30 152
1 31 116
1 32 205
1 33 54
1 34 149
1 35 115
1 36 128
1 37 250
1 38 239
1 39 184
1 40 167
1 41 119
1 42 56
1 43 149
1 44 192
1 45 221
1 46 199
1 47 225
1 48 87
1 49 239
1 50 228
1 51 87
1 52 177
1 53 159
1 54 49
1 55 129
1 56 7
1 57 224
1 58 57
1 59 107
1 60 246
1 61 51
1 62 189
1 63 11
1 64 119
1 65 189
1 66 79
1 67 73
1 68 244
1 69 41
1 70 84
1 71 29
1 72 199
1 73 33
1 74 53
1 75 137
1 76 9
1 77 85
1 78 106
1 79 0
1 80 24
1 81 64
1 82 86
1 83 172
1 84 77
1 85 254
1 86 251
1 87 45
1 88 184
1 89 58
1 90 220
2 3 34
2 4 170
2 5 167
2 6 13
2 7 75
2 8 189
2 9 125
2 10 91
2 11 59
2 12 69
2 13 118
2 14 220
2 15 254
2 16 205
2 17 210
2 18 230
2 19 145
2 20 149
2 21 98
2 22 142
2 23 23
2 24 178
2 25 238
2 26 108
2 27 206
2 28 230
2 29 159
2 30 239
2 31 12
2 32 206
2 33 165
2 34 149
2 35 190
2 36 242
2 37 83
2 38 35
2 39 195
2 40 123
2 41 244
2 42 145
2 43 149
2 44 78
2 45 116
2 46 44
2 47 156
2 48 248
2 49 203
2 50 254
2 51 93
2 52 114
2 53 234
2 54 86
2 55 137
2 56 182
2 57 134
2 58 179
2 59 31
2 60 87
2 61 23
2 62 241
2 63 45
2 64 15
2 65 232
2 66 110
2 67 127
2 68 111
2 69 81
2 70 104
2 71 165
2 72 251
2 73 5
2 74 156
2 75 8
2 76 88
2 77 38
2 78 246
2 79 139
2 80 164
2 81 20
2 82 211
2 83 267
2 84 217
2 85 90
2 86 163
2 87 17
2 88 144
2 89 128
2 90 88
3 4 47
3 5 81
3 6 99
3 7 143
3 8 256
3 9 171
3 10 124
3 11 216
3 12 237
3 13 227
3 14 95
3 15 68
3 16 99
3 17 124
3 18 144
3 19 218
3 20 12
3 21 55
3 22 120
3 23 86
3 24 80
3 25 64
3 26 256
3 27 129
3 28 247
3 29 33
3 30 23
3 31 80
3 32 212
3 33 26
3 34 9
3 35 31
3 36 196
3 37 39
3 38 225
3 39 106
3 40 228
3 41 127
3 42 123
3 43 61
3 44 261
3 45 71
3 46 163
3 47 245
3 48 70
3 49 127
3 50 66
3 51 71
3 52 224
3 53 202
3 54 245
3 55 257
3 56 44
3 57 196
3 58 238
3 59 177
3 60 71
3 61 169
3 62 224
3 63 3
3 64 113
3 65 243
3 66 27
3 67 120
3 68 15
3 69 198
3 70 151
3 71 143
3 72 142
3 73 62
3 74 204
3 75 42
3 76 35
3 77 54
3 78 196
3 79 227
3 80 46
3 81 54
3 82 52
3 83 132
3 84 51
3 85 92
3 86 142
3 87 247
3 88 10
3 89 265
3 90 75
4 5 197
4 6 101
4 7 159
4 8 76
4 9 232
4 10 109
4 11 150
4 12 95
4 13 239
4 14 161
4 15 125
4 16 9
4 17 134
4 18 83
4 19 225
4 20 187
4 21 196
4 22 20
4 23 164
4 24 208
4 25 192
4 26 235
4 27 263
4 28 80
4 29 110
4 30 43
4 31 54
4 32 118
4 33 6
4 34 99
4 35 127
4 36 24
4 37 72
4 38 171
4 39 180
4 40 158
4 41 155
4 42 16
4 43 184
4 44 44
4 45 141
4 46 230
4 47 246
4 48 245
4 49 110
4 50 252
4 51 111
4 52 86
4 53 126
4 54 140
4 55 258
4 56 184
4 57 66
4 58 167
4 59 114
4 60 181
4 61 145
4 62 127
4 63 25
4 64 222
4 65 92
4 66 120
4 67 43
4 68 182
4 69 80
4 70 219
4 71 126
4 72 199
4 73 196
4 74 54
4 75 190
4 76 91
4 77 180
4 78 236
4 79 213
4 80 204
4 81 100
4 82 228
4 83 236
4 84 235
4 85 135
4 86 167
4 87 6
4 88 189
4 89 84
4 90 207
5 6 118
5 7 156
5 8 40
5 9 103
5 10 194
5 11 107
5 12 145
5 13 261
5 14 163
5 15 157
5 16 239
5 17 193
5 18 195
5 19 213
5 20 112
5 21 202
5 22 238
5 23 239
5 24 75
5 25 269
5 26 170
5 27 113
5 28 25
5 29 156
5 30 224
5 31 136
5 32 50
5 33 158
5 34 105
5 35 126
5 36 223
5 37 170
5 38 192
5 39 176
5 40 115
5 41 226
5 42 157
5 43 1
5 44 204
5 45 247
5 46 259
5 47 55
5 48 184
5 49 174
5 50 155
5 51 211
5 52 82
5 53 19
5 54 197
5 55 87
5 56 71
5 57 265
5 58 132
5 59 67
5 60 147
5 61 105
5 62 3
5 63 259
5 64 174
5 65 210
5 66 188
5 67 71
5 68 52
5 69 150
5 70 178
5 71 229
5 72 202
5 73 131
5 74 255
5 75 91
5 76 33
5 77 102
5 78 183
5 79 155
5 80 101
5 81 134
5 82 235
5 83 184
5 84 17
5 85 243
5 86 165
5 87 254
5 88 264
5 89 36
5 90 134
6 7 255
6 8 124
6 9 190
6 10 43
6 11 54
6 12 135
6 13 113
6 14 67
6 15 29
6 16 6
6 17 7
6 18 149
6 19 181
6 20 20
6 21 137
6 22 140
6 23 125
6 24 264
6 25 219
6 26 208
6 27 243
6 28 168
6 29 232
6 30 98
6 31 217
6 32 214
6 33 223
6 34 68
6 35 96
6 36 252
6 37 52
6 38 167
6 39 208
6 40 149
6 41 149
6 42 141
6 43 241
6 44 245
6 45 47
6 46 90
6 47 154
6 48 116
6 49 201
6 50 40
6 51 180
6 52 239
6 53 111
6 54 221
6 55 267
6 56 99
6 57 235
6 58 205
6 59 81
6 60 216
6 61 84
6 62 99
6 63 130
6 64 268
6 65 84
6 66 240
6 67 45
6 68 121
6 69 197
6 70 257
6 71 259
6 72 41
6 73 182
6 74 73
6 75 108
6 76 131
6 77 127
6 78 83
6 79 130
6 80 73
6 81 19
6 82 240
6 83 215
6 84 66
6 85 236
6 86 223
6 87 240
6 88 252
6 89 214
6 90 93
7 8 248
7 9 14
7 10 55
7 11 167
7 12 86
7 13 109
7 14 78
7 15 244
7 16 60
7 17 50
7 18 70
7 19 89
7 20 246
7 21 212
7 22 155
7 23 27
7 24 193
7 25 7
7 26 234
7 27 222
7 28 77
7 29 170
7 30 125
7 31 156
7 32 151
7 33 117
7 34 51
7 35 152
7 36 250
7 37 244
7 38 248
7 39 67
7 40 252
7 41 201
7 42 268
7 43 64
7 44 132
7 45 244
7 46 235
7 47 109
7 48 243
7 49 124
7 50 9
7 51 79
7 52 26
7 53 127
7 54 31
7 55 175
7 56 150
7 57 83
7 58 44
7 59 172
7 60 131
7 61 151
7 62 47
7 63 186
7 64 213
7 65 107
7 66 34
7 67 211
7 68 236
7 69 21
7 70 109
7 71 34
7 72 228
7 73 93
7 74 146
7 75 215
7 76 39
7 77 221
7 78 9
7 79 186
7 80 75
7 81 215
7 82 199
7 83 83
7 84 63
7 85 136
7 86 56
7 87 66
7 88 111
7 89 86
7 90 199
8 9 48
8 10 79
8 11 166
8 12 30
8 13 186
8 14 12
8 15 62
8 16 250
8 17 254
8 18 196
8 19 29
8 20 252
8 21 146
8 22 80
8 23 76
8 24 171
8 25 256
8 26 219
8 27 268
8 28 28
8 29 155
8 30 171
8 31 128
8 32 50
8 33 111
8 34 56
8 35 52
8 36 22
8 37 137
8 38 133
8 39 28
8 40 188
8 41 203
8 42 170
8 43 75
8 44 120
8 45 247
8 46 215
8 47 10
8 48 4
8 49 147
8 50 93
8 51 154
8 52 91
8 53 25
8 54 182
8 55 135
8 56 236
8 57 74
8 58 160
8 59 97
8 60 99
8 61 59
8 62 145
8 63 213
8 64 74
8 65 268
8 66 39
8 67 170
8 68 135
8 69 145
8 70 89
8 71 109
8 72 242
8 73 230
8 74 261
8 75 43
8 76 124
8 77 172
8 78 7
8 79 244
8 80 128
8 81 24
8 82 53
8 83 165
8 84 106
8 85 46
8 86 28
8 87 176
8 88 265
8 89 78
8 90 216
9 10 175
9 11 1
9 12 146
9 13 117
9 14 242
9 15 32
9 16 208
9 17 264
9 18 134
9 19 89
9 20 58
9 21 152
9 22 127
9 23 109
9 24 42
9 25 169
9 26 72
9 27 116
9 28 189
9 29 185
9 30 178
9 31 183
9 32 21
9 33 53
9 34 101
9 35 160
9 36 261
9 37 210
9 38 62
9 39 154
9 40 27
9 41 50
9 42 239
9 43 216
9 44 213
9 45 121
9 46 134
9 47 60
9 48 186
9 49 83
9 50 3
9 51 163
9 52 201
9 53 205
9 54 178
9 55 159
9 56 103
9 57 14
9 58 241
9 59 43
9 60 94
9 61 85
9 62 110
9 63 108
9 64 180
9 65 96
9 66 87
9 67 44
9 68 262
9 69 128
9 70 94
9 71 19
9 72 186
9 73 237
9 74 113
9 75 194
9 76 146
9 77 24
9 78 88
9 79 142
9 80 140
9 81 151
9 82 200
9 83 232
9 84 107
9 85 213
9 86 266
9 87 112
9 88 52
9 89 17
9 90 26
10 11 234
10 12 168
10 13 248
10 14 76
10 15 218
10 16 49
10 17 222
10 18 182
10 19 125
10 20 118
10 21 219
10 22 35
10 23 182
10 24 186
10 25 177
10 26 126
10 27 224
10 28 150
10 29 32
10 30 229
10 31 212
10 32 177
10 33 230
10 34 261
10 35 77
10 36 247
10 37 57
10 38 85
10 39 221
10 40 69
10 41 186
10 42 235
10 43 82
10 44 187
10 45 133
10 46 175
10 47 37
10 48 7
10 49 52
10 50 197
10 51 42
10 52 256
10 53 46
10 54 16
10 55 18
10 56 37
10 57 24
10 58 188
10 59 175
10 60 25
10 61 4
10 62 61
10 63 18
10 64 57
10 65 71
10 66 182
10 67 64
10 68 142
10 69 242
10 70 101
10 71 265
10 72 204
10 73 101
10 74 154
10 75 269
10 76 101
10 77 202
10 78 99
10 79 260
10 80 223
10 81 110
10 82 70
10 83 51
10 84 233
10 85 228
10 86 202
10 87 218
10 88 216
10 89 265
10 90 194
11 12 215
11 13 245
11 14 24
11 15 173
11 16 121
11 17 1
11 18 133
11 19 231
11 20 17
11 21 15
11 22 16
11 23 203
11 24 116
11 25 248
11 26 101
11 27 156
11 28 202
11 29 201
11 30 171
11 31 14
11 32 22
11 33 122
11 34 173
11 35 21
11 36 197
11 37 145
11 38 170
11 39 111
11 40 156
11 41 105
11 42 57
11 43 77
11 44 85
11 45 234
11 46 210
11 47 6
11 48 204
11 49 69
11 50 256
11 51 129
11 52 173
11 53 259
11 54 124
11 55 17
11 56 260
11 57 171
11 58 215
11 59 200
11 60 246
11 61 256
11 62 220
11 63 107
11 64 246
11 65 177
11 66 90
11 67 67
11 68 160
11 69 17
11 70 162
11 71 138
11 72 156
11 73 103
11 74 156
11 75 91
11 76 194
11 77 100
11 78 255
11 79 61
11 80 134
11 81 1
11 82 32
11 83 153
11 84 117
11 85 95
11 86 99
11 87 71
11 88 260
11 89 204
11 90 260
12 13 92
12 14 250
12 15 236
12 16 58
12 17 31
12 18 105
12 19 171
12 20 63
12 21 49
12 22 219
12 23 195
12 24 77
12 25 98
12 26 252
12 27 28
12 28 261
12 29 149
12 30 68
12 31 16
12 32 142
12 33 81
12 34 41
12 35 98
12 36 16
12 37 209
12 38 128
12 39 25
12 40 136
12 41 256
12 42 24
12 43 166
12 44 265
12 45 161
12 46 163
12 47 43
12 48 178
12 49 107
12 50 92
12 51 153
12 52 91
12 53 155
12 54 17
12 55 265
12 56 101
12 57 40
12 58 169
12 59 235
12 60 107
12 61 147
12 62 147
12 63 267
12 64 258
12 65 38
12 66 38
12 67 112
12 68 212
12 69 146
12 70 247
12 71 59
12 72 242
12 73 23
12 74 269
12 75 186
12 76 105
12 77 124
12 78 190
12 79 60
12 80 58
12 81 23
12 82 192
12 83 246
12 84 48
12 85 177
12 86 116
12 87 235
12 88 0
12 89 43
12 90 208
13 14 46
13 15 265
13 16 80
13 17 218
13 18 160
13 19 200
13 20 188
13 21 157
13 22 135
13 23 236
13 24 48
13 25 63
13 26 264
13 27 24
13 28 149
13 29 59
13 30 121
13 31 230
13 32 27
13 33 178
13 34 50
13 35 174
13 36 221
13 37 59
13 38 161
13 39 68
13 40 209
13 41 74
13 42 23
13 43 223
13 44 247
13 45 161
13 46 229
13 47 248
13 48 126
13 49 122
13 50 42
13 51 222
13 52 259
13 53 75
13 54 223
13 55 87
13 56 153
13 57 9
13 58 73
13 59 33
13 60 202
13 61 155
13 62 25
13 63 125
13 64 11
13 65 129
13 66 21
13 67 71
13 68 261
13 69 151
13 70 28
13 71 191
13 72 161
13 73 40
13 74 224
13 75 50
13 76 182
13 77 80
13 78 202
13 79 69
13 80 98
13 81 262
13 82 103
13 83 50
13 84 83
13 85 126
13 86 106
13 87 2
13 88 88
13 89 22
13 90 144
14 15 132
14 16 256
14 17 35
14 18 219
14 19 193
14 20 124
14 21 124
14 22 14
14 23 172
14 24 15
14 25 237
14 26 102
14 27 78
14 28 203
14 29 51
14 30 4
14 31 48
14 32 17
14 33 104
14 34 208
14 35 60
14 36 247
14 37 24
14 38 157
14 39 257
14 40 54
14 41 187
14 42 33
14 43 158
14 44 224
14 45 193
14 46 162
14 47 104
14 48 47
14 49 122
14 50 35
14 51 88
14 52 209
14 53 119
14 54 29
14 55 75
14 56 127
14 57 17
14 58 24
14 59 221
14 60 62
14 61 198
14 62 188
14 63 81
14 64 176
14 65 163
14 66 206
14 67 111
14 68 62
14 69 79
14 70 85
14 71 172
14 72 210
14 73 1
14 74 115
14 75 205
14 76 6
14 77 34
14 78 66
14 79 75
14 80 8
14 81 171
14 82 218
14 83 175
14 84 211
14 85 55
14 86 262
14 87 79
14 88 268
14 89 266
14 90 55
15 16 149
15 17 191
15 18 178
15 19 57
15 20 54
15 21 268
15 22 47
15 23 41
15 24 15
15 25 16
15 26 111
15 27 239
15 28 118
15 29 248
15 30 177
15 31 9
15 32 213
15 33 55
15 34 169
15 35 33
15 36 178
15 37 36
15 38 141
15 39 222
15 40 110
15 41 193
15 42 120
15 43 222
15 44 95
15 45 225
15 46 39
15 47 96
15 48 69
15 49 181
15 50 26
15 51 113
15 52 50
15 53 135
15 54 55
15 55 73
15 56 259
15 57 218
15 58 183
15 59 13
15 60 71
15 61 63
15 62 205
15 63 250
15 64 100
15 65 39
15 66 228
15 67 105
15 68 49
15 69 113
15 70 219
15 71 67
15 72 191
15 73 193
15 74 224
15 75 133
15 76 227
15 77 226
15 78 159
15 79 10
15 80 77
15 81 32
15 82 250
15 83 66
15 84 267
15 85 118
15 86 191
15 87 186
15 88 183
15 89 180
15 90 262
16 17 127
16 18 172
16 19 249
16 20 177
16 21 5
16 22 157
16 23 128
16 24 45
16 25 129
16 26 157
16 27 5
16 28 82
16 29 267
16 30 238
16 31 100
16 32 57
16 33 176
16 34 229
16 35 45
16 36 71
16 37 95
16 38 32
16 39 247
16 40 170
16 41 238
16 42 254
16 43 96
16 44 77
16 45 28
16 46 151
16 47 111
16 48 181
16 49 170
16 50 200
16 51 45
16 52 152
16 53 62
16 54 200
16 55 176
16 56 45
16 57 236
16 58 175
16 59 223
16 60 250
16 61 264
16 62 264
16 63 108
16 64 135
16 65 54
16 66 264
16 67 34
16 68 182
16 69 245
16 70 252
16 71 253
16 72 32
16 73 255
16 74 113
16 75 192
16 76 17
16 77 158
16 78 30
16 79 38
16 80 217
16 81 258
16 82 186
16 83 29
16 84 7
16 85 111
16 86 204
16 87 90
16 88 95
16 89 35
16 90 200
17 18 225
17 19 101
17 20 52
17 21 97
17 22 48
17 23 192
17 24 136
17 25 117
17 26 115
17 27 63
17 28 167
17 29 153
17 30 52
17 31 73
17 32 191
17 33 184
17 34 12
17 35 265
17 36 129
17 37 113
17 38 233
17 39 82
17 40 194
17 41 209
17 42 220
17 43 199
17 44 95
17 45 224
17 46 166
17 47 77
17 48 265
17 49 85
17 50 25
17 51 97
17 52 21
17 53 101
17 54 25
17 55 164
17 56 214
17 57 148
17 58 153
17 59 215
17 60 32
17 61 239
17 62 87
17 63 127
17 64 161
17 65 61
17 66 17
17 67 163
17 68 190
17 69 212
17 70 75
17 71 14
17 72 59
17 73 213
17 74 166
17 75 23
17 76 180
17 77 168
17 78 53
17 79 10
17 80 241
17 81 74
17 82 233
17 83 193
17 84 71
17 85 168
17 86 94
17 87 241
17 88 261
17 89 218
17 90 68
18 19 223
18 20 233
18 21 58
18 22 40
18 23 86
18 24 17
18 25 6
18 26 135
18 27 51
18 28 231
18 29 231
18 30 234
18 31 57
18 32 197
18 33 49
18 34 206
18 35 41
18 36 54
18 37 107
18 38 101
18 39 21
18 40 182
18 41 186
18 42 74
18 43 131
18 44 213
18 45 123
18 46 148
18 47 89
18 48 240
18 49 114
18 50 266
18 51 61
18 52 123
18 53 102
18 54 33
18 55 170
18 56 102
18 57 27
18 58 90
18 59 177
18 60 129
18 61 58
18 62 28
18 63 245
18 64 1
18 65 121
18 66 77
18 67 58
18 68 200
18 69 267
18 70 193
18 71 60
18 72 134
18 73 113
18 74 46
18 75 173
18 76 29
18 77 56
18 78 19
18 79 180
18 80 180
18 81 93
18 82 115
18 83 111
18 84 99
18 85 28
18 86 115
18 87 97
18 88 211
18 89 186
18 90 166
19 20 239
19 21 73
19 22 19
19 23 170
19 24 39
19 25 36
19 26 237
19 27 231
19 28 37
19 29 113
19 30 144
19 31 124
19 32 235
19 33 28
19 34 206
19 35 142
19 36 0
19 37 86
19 38 165
19 39 3
19 40 254
19 41 198
19 42 23
19 43 102
19 44 256
19 45 203
19 46 72
19 47 124
19 48 31
19 49 53
19 50 80
19 51 62
19 52 222
19 53 269
19 54 5
19 55 129
19 56 152
19 57 113
19 58 103
19 59 199
19 60 77
19 61 150
19 62 258
19 63 19
19 64 250
19 65 8
19 66 204
19 67 68
19 68 143
19 69 269
19 70 74
19 71 80
19 72 169
19 73 189
19 74 93
19 75 24
19 76 225
19 77 153
19 78 29
19 79 248
19 80 96
19 81 16
19 82 172
19 83 237
19 84 27
19 85 220
19 86 157
19 87 253
19 88 39
19 89 148
19 90 239
20 21 52
20 22 172
20 23 96
20 24 225
20 25 68
20 26 138
20 27 165
20 28 59
20 29 212
20 30 263
20 31 145
20 32 51
20 33 119
20 34 144
20 35 100
20 36 45
20 37 168
20 38 257
20 39 30
20 40 232
20 41 217
20 42 199
20 43 261
20 44 79
20 45 0
20 46 73
20 47 70
20 48 33
20 49 52
20 50 159
20 51 161
20 52 98
20 53 269
20 54 30
20 55 244
20 56 72
20 57 255
20 58 72
20 59 143
20 60 120
20 61 60
20 62 236
20 63 109
20 64 112
20 65 59
20 66 162
20 67 183
20 68 251
20 69 150
20 70 167
20 71 204
20 72 245
20 73 49
20 74 172
20 75 3
20 76 204
20 77 118
20 78 259
20 79 166
20 80 133
20 81 126
20 82 202
20 83 191
20 84 23
20 85 183
20 86 209
20 87 32
20 88 219
20 89 162
20 90 265
21 22 72
21 23 150
21 24 73
21 25 75
21 26 128
21 27 198
21 28 232
21 29 161
21 30 26
21 31 143
21 32 9
21 33 184
21 34 191
21 35 90
21 36 241
21 37 25
21 38 124
21 39 131
21 40 112
21 41 46
21 42 127
21 43 44
21 44 186
21 45 180
21 46 71
21 47 78
21 48 19
21 49 0
21 50 69
21 51 193
21 52 98
21 53 191
21 54 216
21 55 86
21 56 197
21 57 167
21 58 91
21 59 244
21 60 191
21 61 135
21 62 167
21 63 57
21 64 220
21 65 71
21 66 156
21 67 237
21 68 106
21 69 26
21 70 233
21 71 135
21 72 93
21 73 81
21 74 236
21 75 24
21 76 244
21 77 153
21 78 172
21 79 0
21 80 214
21 81 42
21 82 260
21 83 100
21 84 38
21 85 242
21 86 252
21 87 266
21 88 219
21 89 31
21 90 204
22 23 189
22 24 259
22 25 21
22 26 12
22 27 107
22 28 111
22 29 5
22 30 96
22 31 6
22 32 14
22 33 46
22 34 83
22 35 151
22 36 137
22 37 260
22 38 193
22 39 12
22 40 213
22 41 163
22 42 138
22 43 145
22 44 88
22 45 31
22 46 255
22 47 242
22 48 207
22 49 129
22 50 24
22 51 178
22 52 222
22 53 145
22 54 269
22 55 126
22 56 247
22 57 156
22 58 199
22 59 223
22 60 56
22 61 21
22 62 92
22 63 236
22 64 194
22 65 252
22 66 191
22 67 43
22 68 104
22 69 156
22 70 8
22 71 147
22 72 97
22 73 74
22 74 64
22 75 255
22 76 85
22 77 182
22 78 92
22 79 112
22 80 31
22 81 82
22 82 39
22 83 237
22 84 268
22 85 266
22 86 235
22 87 269
22 88 59
22 89 158
22 90 106
23 24 241
23 25 25
23 26 80
23 27 158
23 28 1
23 29 148
23 30 171
23 31 237
23 32 116
23 33 80
23 34 46
23 35 192
23 36 28
23 37 152
23 38 137
23 39 167
23 40 19
23 41 43
23 42 196
23 43 85
23 44 214
23 45 180
23 46 190
23 47 39
23 48 201
23 49 187
23 50 196
23 51 68
23 52 218
23 53 102
23 54 248
23 55 111
23 56 52
23 57 140
23 58 235
23 59 230
23 60 88
23 61 143
23 62 187
23 63 162
23 64 87
23 65 54
23 66 7
23 67 227
23 68 131
23 69 30
23 70 46
23 71 80
23 72 24
23 73 249
23 74 0
23 75 2
23 76 57
23 77 94
23 78 186
23 79 234
23 80 29
23 81 22
23 82 8
23 83 63
23 84 133
23 85 36
23 86 111
23 87 47
23 88 229
23 89 250
23 90 106
24 25 8
24 26 82
24 27 62
24 28 247
24 29 211
24 30 16
24 31 79
24 32 52
24 33 33
24 34 138
24 35 12
24 36 139
24 37 121
24 38 48
24 39 149
24 40 142
24 41 144
24 42 236
24 43 125
24 44 258
24 45 150
24 46 17
24 47 244
24 48 167
24 49 54
24 50 138
24 51 268
24 52 98
24 53 83
24 54 53
24 55 195
24 56 139
24 57 195
24 58 147
24 59 254
24 60 50
24 61 257
24 62 102
24 63 86
24 64 241
24 65 15
24 66 247
24 67 35
24 68 96
24 69 220
24 70 165
24 71 258
24 72 205
24 73 253
24 74 108
24 75 67
24 76 194
24 77 71
24 78 125
24 79 131
24 80 173
24 81 122
24 82 5
24 83 43
24 84 98
24 85 48
24 86 122
24 87 169
24 88 35
24 89 115
24 90 119
25 26 44
25 27 150
25 28 205
25 29 187
25 30 24
25 31 199
25 32 209
25 33 229
25 34 173
25 35 201
25 36 79
25 37 13
25 38 110
25 39 41
25 40 80
25 41 172
25 42 188
25 43 19
25 44 184
25 45 224
25 46 171
25 47 61
25 48 10
25 49 31
25 50 248
25 51 263
25 52 112
25 53 184
25 54 8
25 55 174
25 56 233
25 57 208
25 58 72
25 59 80
25 60 41
25 61 222
25 62 19
25 63 152
25 64 174
25 65 130
25 66 81
25 67 159
25 68 176
25 69 11
25 70 109
25 71 222
25 72 132
25 73 189
25 74 107
25 75 198
25 76 49
25 77 104
25 78 247
25 79 264
25 80 86
25 81 266
25 82 206
25 83 75
25 84 58
25 85 112
25 86 130
25 87 173
25 88 240
25 89 57
25 90 24
26 27 24
26 28 198
26 29 155
26 30 113
26 31 73
26 32 93
26 33 119
26 34 160
26 35 37
26 36 164
26 37 237
26 38 154
26 39 52
26 40 238
26 41 214
26 42 230
26 43 199
26 44 114
26 45 72
26 46 236
26 47 48
26 48 198
26 49 213
26 50 119
26 51 175
26 52 236
26 53 257
26 54 47
26 55 26
26 56 15
26 57 75
26 58 75
26 59 214
26 60 203
26 61 175
26 62 165
26 63 235
26 64 197
26 65 137
26 66 6
26 67 227
26 68 251
26 69 268
26 70 7
26 71 139
26 72 101
26 73 258
26 74 39
26 75 261
26 76 15
26 77 263
26 78 6
26 79 194
26 80 69
26 81 195
26 82 104
26 83 128
26 84 267
26 85 70
26 86 211
26 87 206
26 88 250
26 89 89
26 90 108
27 28 265
27 29 124
27 30 231
27 31 241
27 32 28
27 33 200
27 34 113
27 35 57
27 36 157
27 37 5
27 38 134
27 39 50
27 40 244
27 41 247
27 42 156
27 43 193
27 44 192
27 45 67
27 46 17
27 47 56
27 48 143
27 49 69
27 50 10
27 51 229
27 52 41
27 53 205
27 54 153
27 55 107
27 56 92
27 57 73
27 58 93
27 59 246
27 60 56
27 61 2
27 62 106
27 63 125
27 64 30
27 65 48
27 66 135
27 67 88
27 68 103
27 69 196
27 70 151
27 71 67
27 72 76
27 73 99
27 74 73
27 75 167
27 76 180
27 77 255
27 78 126
27 79 63
27 80 45
27 81 124
27 82 104
27 83 50
27 84 174
27 85 95
27 86 201
27 87 3
27 88 139
27 89 247
27 90 229
28 29 235
28 30 71
28 31 123
28 32 157
28 33 33
28 34 216
28 35 52
28 36 220
28 37 105
28 38 29
28 39 136
28 40 56
28 41 265
28 42 0
28 43 172
28 44 142
28 45 249
28 46 257
28 47 88
28 48 101
28 49 49
28 50 195
28 51 31
28 52 228
28 53 230
28 54 196
28 55 4
28 56 7
28 57 6
28 58 226
28 59 51
28 60 139
28 61 242
28 62 260
28 63 78
28 64 169
28 65 126
28 66 215
28 67 93
28 68 206
28 69 165
28 70 263
28 71 113
28 72 73
28 73 133
28 74 193
28 75 91
28 76 109
28 77 31
28 78 20
28 79 2
28 80 108
28 81 31
28 82 41
28 83 198
28 84 218
28 85 69
28 86 44
28 87 190
28 88 245
28 89 168
28 90 186
29 30 190
29 31 263
29 32 33
29 33 94
29 34 90
29 35 254
29 36 214
29 37 236
29 38 266
29 39 61
29 40 157
29 41 252
29 42 267
29 43 97
29 44 150
29 45 158
29 46 105
29 47 146
29 48 237
29 49 124
29 50 151
29 51 66
29 52 131
29 53 196
29 54 88
29 55 220
29 56 200
29 57 83
29 58 4
29 59 149
29 60 90
29 61 104
29 62 17
29 63 226
29 64 142
29 65 183
29 66 238
29 67 190
29 68 167
29 69 177
29 70 153
29 71 219
29 72 179
29 73 78
29 74 163
29 75 36
29 76 39
29 77 143
29 78 222
29 79 237
29 80 34
29 81 2
29 82 259
29 83 167
29 84 265
29 85 2
29 86 182
29 87 114
29 88 176
29 89 7
29 90 171
30 31 59
30 32 86
30 33 264
30 34 26
30 35 131
30 36 268
30 37 134
30 38 25
30 39 12
30 40 100
30 41 118
30 42 248
30 43 111
30 44 239
30 45 189
30 46 1
30 47 269
30 48 54
30 49 21
30 50 86
30 51 171
30 52 253
30 53 155
30 54 83
30 55 108
30 56 62
30 57 232
30 58 216
30 59 228
30 60 117
30 61 103
30 62 18
30 63 129
30 64 65
30 65 257
30 66 30
30 67 122
30 68 255
30 69 52
30 70 46
30 71 244
30 72 130
30 73 195
30 74 144
30 75 218
30 76 204
30 77 70
30 78 72
30 79 217
30 80 83
30 81 92
30 82 133
30 83 125
30 84 193
30 85 66
30 86 261
30 87 157
30 88 162
30 89 145
30 90 12
31 32 236
31 33 111
31 34 154
31 35 60
31 36 143
31 37 31
31 38 50
31 39 60
31 40 253
31 41 186
31 42 216
31 43 160
31 44 201
31 45 256
31 46 134
31 47 34
31 48 57
31 49 9
31 50 84
31 51 259
31 52 157
31 53 45
31 54 58
31 55 61
31 56 113
31 57 40
31 58 207
31 59 188
31 60 268
31 61 229
31 62 45
31 63 230
31 64 76
31 65 142
31 66 8
31 67 133
31 68 155
31 69 269
31 70 168
31 71 175
31 72 191
31 73 89
31 74 169
31 75 95
31 76 164
31 77 144
31 78 84
31 79 165
31 80 255
31 81 151
31 82 163
31 83 20
31 84 87
31 85 191
31 86 102
31 87 261
31 88 175
31 89 101
31 90 19
32 33 160
32 34 19
32 35 92
32 36 153
32 37 195
32 38 255
32 39 150
32 40 16
32 41 155
32 42 141
32 43 38
32 44 49
32 45 151
32 46 186
32 47 27
32 48 161
32 49 27
32 50 182
32 51 37
32 52 136
32 53 32
32 54 93
32 55 72
32 56 54
32 57 6
32 58 257
32 59 149
32 60 109
32 61 59
32 62 100
32 63 76
32 64 84
32 65 64
32 66 229
32 67 133
32 68 102
32 69 155
32 70 71
32 71 36
32 72 169
32 73 20
32 74 119
32 75 203
32 76 189
32 77 158
32 78 234
32 79 57
32 80 72
32 81 100
32 82 108
32 83 159
32 84 89
32 85 48
32 86 253
32 87 15
32 88 117
32 89 16
32 90 88
33 34 10
33 35 77
33 36 85
33 37 1
33 38 107
33 39 10
33 40 117
33 41 135
33 42 93
33 43 200
33 44 67
33 45 151
33 46 30
33 47 263
33 48 92
33 49 36
33 50 103
33 51 79
33 52 6
33 53 269
33 54 59
33 55 33
33 56 246
33 57 32
33 58 72
33 59 225
33 60 183
33 61 52
33 62 225
33 63 71
33 64 187
33 65 176
33 66 202
33 67 55
33 68 205
33 69 25
33 70 180
33 71 208
33 72 172
33 73 59
33 74 118
33 75 218
33 76 143
33 77 20
33 78 72
33 79 36
33 80 66
33 81 189
33 82 143
33 83 201
33 84 66
33 85 194
33 86 183
33 87 257
33 88 266
33 89 51
33 90 55
34 35 231
34 36 137
34 37 252
34 38 211
34 39 53
34 40 129
34 41 189
34 42 198
34 43 191
34 44 7
34 45 146
34 46 193
34 47 2
34 48 122
34 49 174
34 50 233
34 51 32
34 52 72
34 53 207
34 54 154
34 55 223
34 56 78
34 57 1
34 58 259
34 59 208
34 60 13
34 61 126
34 62 78
34 63 62
34 64 185
34 65 205
34 66 211
34 67 192
34 68 78
34 69 191
34 70 127
34 71 175
34 72 165
34 73 106
34 74 170
34 75 170
34 76 105
34 77 30
34 78 31
34 79 267
34 80 148
34 81 256
34 82 13
34 83 68
34 84 23
34 85 212
34 86 212
34 87 1
34 88 148
34 89 50
34 90 7
35 36 178
35 37 134
35 38 69
35 39 129
35 40 134
35 41 215
35 42 202
35 43 258
35 44 150
35 45 52
35 46 196
35 47 208
35 48 170
35 49 266
35 50 202
35 51 172
35 52 223
35 53 229
35 54 74
35 55 140
35 56 144
35 57 21
35 58 237
35 59 53
35 60 257
35 61 254
35 62 215
35 63 216
35 64 98
35 65 116
35 66 74
35 67 122
35 68 140
35 69 166
35 70 149
35 71 111
35 72 146
35 73 65
35 74 23
35 75 268
35 76 6
35 77 264
35 78 208
35 79 216
35 80 135
35 81 49
35 82 30
35 83 88
35 84 163
35 85 88
35 86 166
35 87 56
35 88 156
35 89 137
35 90 86
36 37 140
36 38 80
36 39 16
36 40 196
36 41 222
36 42 7
36 43 33
36 44 264
36 45 213
36 46 48
36 47 86
36 48 117
36 49 228
36 50 71
36 51 236
36 52 9
36 53 173
36 54 79
36 55 48
36 56 149
36 57 165
36 58 77
36 59 157
36 60 42
36 61 12
36 62 161
36 63 80
36 64 101
36 65 227
36 66 222
36 67 101
36 68 106
36 69 70
36 70 185
36 71 111
36 72 162
36 73 255
36 74 151
36 75 74
36 76 210
36 77 244
36 78 25
36 79 161
36 80 106
36 81 158
36 82 215
36 83 153
36 84 161
36 85 257
36 86 160
36 87 173
36 88 248
36 89 171
36 90 207
37 38 87
37 39 227
37 40 149
37 41 19
37 42 166
37 43 79
37 44 170
37 45 244
37 46 81
37 47 50
37 48 154
37 49 86
37 50 223
37 51 169
37 52 151
37 53 119
37 54 88
37 55 91
37 56 249
37 57 186
37 58 178
37 59 144
37 60 23
37 61 35
37 62 72
37 63 32
37 64 137
37 65 237
37 66 82
37 67 147
37 68 66
37 69 34
37 70 231
37 71 171
37 72 229
37 73 240
37 74 114
37 75 203
37 76 6
37 77 59
37 78 106
37 79 83
37 80 246
37 81 76
37 82 38
37 83 38
37 84 250
37 85 84
37 86 167
37 87 54
37 88 263
37 89 133
37 90 80
38 39 161
38 40 233
38 41 191
38 42 179
38 43 88
38 44 100
38 45 24
38 46 69
38 47 88
38 48 242
38 49 253
38 50 53
38 51 177
38 52 80
38 53 207
38 54 134
38 55 113
38 56 229
38 57 106
38 58 76
38 59 220
38 60 190
38 61 57
38 62 2
38 63 94
38 64 248
38 65 166
38 66 23
38 67 26
38 68 122
38 69 15
38 70 214
38 71 231
38 72 118
38 73 94
38 74 177
38 75 237
38 76 77
38 77 255
38 78 250
38 79 209
38 80 262
38 81 232
38 82 115
38 83 233
38 84 78
38 85 60
38 86 12
38 87 255
38 88 139
38 89 13
38 90 183
39 40 242
39 41 191
39 42 39
39 43 178
39 44 97
39 45 147
39 46 61
39 47 9
39 48 239
39 49 34
39 50 87
39 51 240
39 52 186
39 53 56
39 54 206
39 55 214
39 56 135
39 57 83
39 58 238
39 59 82
39 60 216
39 61 269
39 62 24
39 63 242
39 64 177
39 65 22
39 66 146
39 67 205
39 68 231
39 69 38
39 70 120
39 71 172
39 72 173
39 73 102
39 74 95
39 75 263
39 76 122
39 77 44
39 78 102
39 79 133
39 80 213
39 81 106
39 82 84
39 83 164
39 84 216
39 85 242
39 86 235
39 87 85
39 88 8
39 89 72
39 90 26
40 41 211
40 42 141
40 43 201
40 44 205
40 45 89
40 46 21
40 47 112
40 48 30
40 49 10
40 50 233
40 51 36
40 52 246
40 53 53
40 54 135
40 55 181
40 56 228
40 57 190
40 58 117
40 59 185
40 60 19
40 61 30
40 62 126
40 63 31
40 64 209
40 65 212
40 66 118
40 67 253
40 68 49
40 69 25
40 70 195
40 71 164
40 72 157
40 73 70
40 74 141
40 75 181
40 76 251
40 77 68
40 78 243
40 79 213
40 80 210
40 81 95
40 82 92
40 83 67
40 84 81
40 85 165
40 86 89
40 87 258
40 88 118
40 89 248
40 90 254
41 42 98
41 43 93
41 44 204
41 45 114
41 46 118
41 47 79
41 48 62
41 49 155
41 50 82
41 51 183
41 52 37
41 53 164
41 54 3
41 55 50
41 56 104
41 57 44
41 58 239
41 59 32
41 60 135
41 61 236
41 62 3
41 63 26
41 64 255
41 65 238
41 66 103
41 67 14
41 68 206
41 69 256
41 70 71
41 71 79
41 72 75
41 73 69
41 74 61
41 75 193
41 76 186
41 77 183
41 78 122
41 79 217
41 80 25
41 81 157
41 82 220
41 83 187
41 84 228
41 85 191
41 86 12
41 87 102
41 88 146
41 89 24
41 90 202
42 43 184
42 44 185
42 45 123
42 46 3
42 47 119
42 48 244
42 49 34
42 50 110
42 51 35
42 52 35
42 53 221
42 54 221
42 55 51
42 56 2
42 57 158
42 58 245
42 59 180
42 60 39
42 61 183
42 62 255
42 63 207
42 64 267
42 65 73
42 66 223
42 67 242
42 68 133
42 69 227
42 70 108
42 71 187
42 72 109
42 73 127
42 74 201
42 75 146
42 76 18
42 77 202
42 78 91
42 79 14
42 80 214
42 81 234
42 82 267
42 83 59
42 84 248
42 85 164
42 86 159
42 87 89
42 88 174
42 89 121
42 90 22
43 44 133
43 45 222
43 46 96
43 47 80
43 48 148
43 49 210
43 50 124
43 51 141
43 52 148
43 53 72
43 54 43
43 55 128
43 56 198
43 57 43
43 58 213
43 59 58
43 60 269
43 61 18
43 62 70
43 63 244
43 64 233
43 65 108
43 66 71
43 67 211
43 68 108
43 69 6
43 70 183
43 71 29
43 72 193
43 73 209
43 74 225
43 75 223
43 76 172
43 77 185
43 78 65
43 79 209
43 80 135
43 81 88
43 82 31
43 83 195
43 84 122
43 85 157
43 86 206
43 87 13
43 88 47
43 89 36
43 90 180
44 45 176
44 46 81
44 47 148
44 48 182
44 49 145
44 50 224
44 51 2
44 52 82
44 53 172
44 54 15
44 55 23
44 56 150
44 57 145
44 58 141
44 59 188
44 60 239
44 61 138
44 62 215
44 63 20
44 64 186
44 65 190
44 66 36
44 67 248
44 68 56
44 69 242
44 70 137
44 71 261
44 72 142
44 73 236
44 74 102
44 75 166
44 76 53
44 77 64
44 78 238
44 79 252
44 80 94
44 81 94
44 82 189
44 83 13
44 84 183
44 85 72
44 86 62
44 87 157
44 88 87
44 89 2
44 90 71
45 46 16
45 47 219
45 48 74
45 49 155
45 50 52
45 51 75
45 52 206
45 53 120
45 54 225
45 55 49
45 56 206
45 57 189
45 58 247
45 59 178
45 60 176
45 61 42
45 62 23
45 63 6
45 64 229
45 65 191
45 66 93
45 67 121
45 68 23
45 69 149
45 70 57
45 71 11
45 72 0
45 73 161
45 74 98
45 75 105
45 76 8
45 77 100
45 78 214
45 79 231
45 80 238
45 81 96
45 82 171
45 83 115
45 84 159
45 85 203
45 86 80
45 87 124
45 88 176
45 89 7
45 90 62
46 47 66
46 48 243
46 49 77
46 50 22
46 51 51
46 52 189
46 53 157
46 54 205
46 55 110
46 56 183
46 57 58
46 58 150
46 59 231
46 60 81
46 61 12
46 62 229
46 63 120
46 64 159
46 65 101
46 66 128
46 67 26
46 68 112
46 69 241
46 70 234
46 71 43
46 72 14
46 73 130
46 74 197
46 75 54
46 76 37
46 77 169
46 78 9
46 79 179
46 80 87
46 81 99
46 82 82
46 83 144
46 84 228
46 85 69
46 86 105
46 87 170
46 88 103
46 89 112
46 90 234
47 48 200
47 49 221
47 50 218
47 51 42
47 52 128
47 53 108
47 54 210
47 55 57
47 56 187
47 57 149
47 58 211
47 59 33
47 60 62
47 61 231
47 62 220
47 63 68
47 64 61
47 65 184
47 66 147
47 67 40
47 68 83
47 69 108
47 70 10
47 71 155
47 72 26
47 73 103
47 74 145
47 75 70
47 76 121
47 77 25
47 78 190
47 79 167
47 80 208
47 81 0
47 82 238
47 83 258
47 84 26
47 85 18
47 86 51
47 87 178
47 88 186
47 89 167
47 90 149
48 49 231
48 50 149
48 51 127
48 52 242
48 53 3
48 54 187
48 55 142
48 56 138
48 57 151
48 58 29
48 59 242
48 60 124
48 61 117
48 62 252
48 63 1
48 64 213
48 65 28
48 66 222
48 67 224
48 68 160
48 69 229
48 70 13
48 71 0
48 72 115
48 73 143
48 74 11
48 75 213
48 76 124
48 77 212
48 78 252
48 79 109
48 80 109
48 81 180
48 82 168
48 83 142
48 84 28
48 85 173
48 86 72
48 87 215
48 88 46
48 89 102
48 90 42
49 50 60
49 51 7
49 52 114
49 53 1
49 54 37
49 55 31
49 56 19
49 57 243
49 58 151
49 59 31
49 60 233
49 61 212
49 62 33
49 63 238
49 64 152
49 65 193
49 66 41
49 67 183
49 68 105
49 69 59
49 70 30
49 71 171
49 72 113
49 73 139
49 74 223
49 75 92
49 76 0
49 77 269
49 78 34
49 79 142
49 80 238
49 81 124
49 82 119
49 83 138
49 84 241
49 85 120
49 86 8
49 87 25
49 88 54
49 89 178
49 90 203
50 51 113
50 52 73
50 53 111
50 54 164
50 55 225
50 56 132
50 57 31
50 58 177
50 59 257
50 60 43
50 61 81
50 62 249
50 63 51
50 64 54
50 65 67
50 66 166
50 67 216
50 68 147
50 69 192
50 70 61
50 71 89
50 72 176
50 73 157
50 74 31
50 75 237
50 76 51
50 77 8
50 78 254
50 79 156
50 80 220
50 81 60
50 82 20
50 83 16
50 84 77
50 85 150
50 86 182
50 87 131
50 88 207
50 89 13
50 90 83
51 52 82
51 53 11
51 54 47
51 55 126
51 56 266
51 57 104
51 58 232
51 59 73
51 60 254
51 61 209
51 62 126
51 63 58
51 64 200
51 65 167
51 66 204
51 67 69
51 68 97
51 69 90
51 70 49
51 71 56
51 72 244
51 73 28
51 74 133
51 75 18
51 76 184
51 77 36
51 78 216
51 79 108
51 80 71
51 81 96
51 82 127
51 83 65
51 84 13
51 85 161
51 86 79
51 87 174
51 88 93
51 89 106
51 90 140
52 53 220
52 54 242
52 55 52
52 56 68
52 57 247
52 58 129
52 59 170
52 60 95
52 61 240
52 62 61
52 63 41
52 64 123
52 65 133
52 66 85
52 67 5
52 68 130
52 69 7
52 70 218
52 71 189
52 72 226
52 73 252
52 74 244
52 75 213
52 76 185
52 77 254
52 78 248
52 79 56
52 80 217
52 81 241
52 82 135
52 83 41
52 84 64
52 85 146
52 86 191
52 87 198
52 88 160
52 89 220
52 90 240
53 54 133
53 55 116
53 56 108
53 57 192
53 58 52
53 59 173
53 60 13
53 61 78
53 62 152
53 63 198
53 64 252
53 65 254
53 66 256
53 67 258
53 68 204
53 69 213
53 70 207
53 71 172
53 72 213
53 73 262
53 74 89
53 75 65
53 76 52
53 77 37
53 78 38
53 79 62
53 80 107
53 81 76
53 82 34
53 83 51
53 84 117
53 85 37
53 86 210
53 87 40
53 88 202
53 89 213
53 90 258
54 55 24
54 56 1
54 57 139
54 58 162
54 59 266
54 60 99
54 61 30
54 62 200
54 63 256
54 64 80
54 65 209
54 66 121
54 67 186
54 68 39
54 69 56
54 70 101
54 71 257
54 72 125
54 73 167
54 74 52
54 75 145
54 76 195
54 77 161
54 78 195
54 79 25
54 80 146
54 81 99
54 82 42
54 83 60
54 84 185
54 85 120
54 86 45
54 87 268
54 88 96
54 89 23
54 90 164
55 56 92
55 57 170
55 58 246
55 59 19
55 60 55
55 61 231
55 62 221
55 63 153
55 64 76
55 65 43
55 66 172
55 67 33
55 68 63
55 69 7
55 70 7
55 71 19
55 72 242
55 73 262
55 74 88
55 75 83
55 76 17
55 77 219
55 78 15
55 79 212
55 80 217
55 81 119
55 82 110
55 83 96
55 84 214
55 85 104
55 86 202
55 87 259
55 88 138
55 89 67
55 90 237
56 57 81
56 58 89
56 59 96
56 60 143
56 61 42
56 62 229
56 63 239
56 64 124
56 65 248
56 66 172
56 67 216
56 68 146
56 69 177
56 70 137
56 71 220
56 72 174
56 73 237
56 74 129
56 75 21
56 76 212
56 77 3
56 78 234
56 79 220
56 80 219
56 81 111
56 82 151
56 83 14
56 84 51
56 85 19
56 86 216
56 87 28
56 88 105
56 89 221
56 90 177
57 58 128
57 59 229
57 60 264
57 61 207
57 62 82
57 63 194
57 64 173
57 65 227
57 66 163
57 67 227
57 68 217
57 69 243
57 70 103
57 71 83
57 72 167
57 73 75
57 74 93
57 75 104
57 76 95
57 77 28
57 78 174
57 79 178
57 80 52
57 81 166
57 82 13
57 83 110
57 84 0
57 85 126
57 86 14
57 87 140
57 88 109
57 89 194
57 90 109
58 59 99
58 60 158
58 61 138
58 62 266
58 63 124
58 64 132
58 65 243
58 66 261
58 67 184
58 68 198
58 69 202
58 70 127
58 71 116
58 72 178
58 73 158
58 74 94
58 75 126
58 76 213
58 77 25
58 78 88
58 79 256
58 80 103
58 81 89
58 82 110
58 83 60
58 84 241
58 85 56
58 86 203
58 87 215
58 88 67
58 89 142
58 90 98
59 60 257
59 61 43
59 62 177
59 63 243
59 64 147
59 65 154
59 66 139
59 67 218
59 68 215
59 69 105
59 70 193
59 71 23
59 72 188
59 73 194
59 74 267
59 75 34
59 76 204
59 77 169
59 78 46
59 79 188
59 80 122
59 81 73
59 82 167
59 83 195
59 84 182
59 85 264
59 86 247
59 87 215
59 88 231
59 89 179
59 90 44
60 61 176
60 62 259
60 63 50
60 64 54
60 65 94
60 66 136
60 67 19
60 68 2
60 69 115
60 70 169
60 71 216
60 72 222
60 73 100
60 74 87
60 75 28
60 76 187
60 77 224
60 78 78
60 79 267
60 80 48
60 81 180
60 82 247
60 83 92
60 84 235
60 85 33
60 86 177
60 87 171
60 88 149
60 89 38
60 90 158
61 62 109
61 63 58
61 64 104
61 65 108
61 66 215
61 67 166
61 68 21
61 69 269
61 70 114
61 71 240
61 72 249
61 73 20
61 74 158
61 75 16
61 76 57
61 77 73
61 78 22
61 79 188
61 80 124
61 81 263
61 82 265
61 83 70
61 84 30
61 85 166
61 86 166
61 87 116
61 88 85
61 89 34
61 90 234
62 63 135
62 64 142
62 65 225
62 66 172
62 67 212
62 68 170
62 69 67
62 70 56
62 71 65
62 72 153
62 73 266
62 74 197
62 75 114
62 76 247
62 77 240
62 78 173
62 79 212
62 80 46
62 81 182
62 82 57
62 83 136
62 84 67
62 85 125
62 86 23
62 87 227
62 88 120
62 89 127
62 90 75
63 64 74
63 65 101
63 66 58
63 67 90
63 68 147
63 69 7
63 70 135
63 71 130
63 72 232
63 73 198
63 74 197
63 75 152
63 76 82
63 77 264
63 78 134
63 79 13
63 80 235
63 81 199
63 82 150
63 83 55
63 84 10
63 85 11
63 86 202
63 87 103
63 88 92
63 89 108
63 90 242
64 65 200
64 66 225
64 67 197
64 68 131
64 69 196
64 70 178
64 71 21
64 72 108
64 73 103
64 74 223
64 75 10
64 76 169
64 77 71
64 78 265
64 79 138
64 80 237
64 81 121
64 82 255
64 83 135
64 84 209
64 85 76
64 86 200
64 87 36
64 88 259
64 89 92
64 90 250
65 66 141
65 67 231
65 68 115
65 69 156
65 70 42
65 71 198
65 72 114
65 73 73
65 74 155
65 75 142
65 76 250
65 77 234
65 78 173
65 79 190
65 80 8
65 81 109
65 82 149
65 83 173
65 84 109
65 85 237
65 86 152
65 87 226
65 88 66
65 89 117
65 90 35
66 67 79
66 68 94
66 69 119
66 70 133
66 71 197
66 72 44
66 73 106
66 74 8
66 75 36
66 76 58
66 77 253
66 78 68
66 79 145
66 80 269
66 81 60
66 82 99
66 83 162
66 84 0
66 85 197
66 86 249
66 87 263
66 88 111
66 89 43
66 90 154
67 68 244
67 69 89
67 70 7
67 71 182
67 72 29
67 73 130
67 74 198
67 75 269
67 76 226
67 77 42
67 78 124
67 79 267
67 80 226
67 81 227
67 82 41
67 83 6
67 84 136
67 85 251
67 86 202
67 87 116
67 88 91
67 89 127
67 90 232
68 69 109
68 70 134
68 71 256
68 72 250
68 73 9
68 74 174
68 75 51
68 76 60
68 77 114
68 78 84
68 79 232
68 80 43
68 81 21
68 82 143
68 83 44
68 84 97
68 85 221
68 86 255
68 87 187
68 88 186
68 89 46
68 90 172
69 70 58
69 71 56
69 72 265
69 73 166
69 74 243
69 75 95
69 76 12
69 77 60
69 78 77
69 79 174
69 80 3
69 81 118
69 82 216
69 83 35
69 84 109
69 85 181
69 86 63
69 87 117
69 88 41
69 89 169
69 90 257
70 71 171
70 72 102
70 73 149
70 74 1
70 75 251
70 76 45
70 77 29
70 78 137
70 79 36
70 80 128
70 81 229
70 82 235
70 83 40
70 84 81
70 85 79
70 86 67
70 87 248
70 88 56
70 89 145
70 90 182
71 72 191
71 73 80
71 74 258
71 75 204
71 76 33
71 77 33
71 78 69
71 79 262
71 80 169
71 81 258
71 82 48
71 83 131
71 84 44
71 85 67
71 86 66
71 87 246
71 88 134
71 89 220
71 90 62
72 73 40
72 74 247
72 75 269
72 76 51
72 77 227
72 78 256
72 79 79
72 80 37
72 81 241
72 82 240
72 83 35
72 84 222
72 85 140
72 86 168
72 87 9
72 88 1
72 89 197
72 90 70
73 74 201
73 75 123
73 76 140
73 77 242
73 78 119
73 79 171
73 80 262
73 81 180
73 82 251
73 83 109
73 84 247
73 85 195
73 86 252
73 87 193
73 88 222
73 89 249
73 90 153
74 75 178
74 76 154
74 77 28
74 78 48
74 79 174
74 80 20
74 81 236
74 82 131
74 83 42
74 84 37
74 85 246
74 86 236
74 87 181
74 88 257
74 89 242
74 90 8
75 76 128
75 77 85
75 78 266
75 79 97
75 80 54
75 81 42
75 82 206
75 83 46
75 84 222
75 85 59
75 86 195
75 87 197
75 88 77
75 89 14
75 90 254
76 77 171
76 78 166
76 79 221
76 80 178
76 81 128
76 82 60
76 83 150
76 84 114
76 85 245
76 86 265
76 87 62
76 88 168
76 89 239
76 90 27
77 78 135
77 79 44
77 80 165
77 81 16
77 82 19
77 83 16
77 84 0
77 85 99
77 86 79
77 87 178
77 88 53
77 89 103
77 90 56
78 79 248
78 80 224
78 81 264
78 82 99
78 83 170
78 84 257
78 85 15
78 86 210
78 87 118
78 88 18
78 89 109
78 90 258
79 80 261
79 81 261
79 82 130
79 83 208
79 84 220
79 85 176
79 86 135
79 87 32
79 88 149
79 89 89
79 90 138
80 81 80
80 82 260
80 83 173
80 84 62
80 85 167
80 86 73
80 87 244
80 88 16
80 89 194
80 90 162
81 82 58
81 83 199
81 84 80
81 85 153
81 86 184
81 87 73
81 88 113
81 89 160
81 90 86
82 83 266
82 84 250
82 85 5
82 86 135
82 87 90
82 88 48
82 89 109
82 90 201
83 84 246
83 85 58
83 86 212
83 87 27
83 88 82
83 89 259
83 90 146
84 85 5
84 86 102
84 87 52
84 88 26
84 89 160
84 90 12
85 86 35
85 87 90
85 88 206
85 89 189
85 90 185
86 87 30
86 88 214
86 89 65
86 90 9
87 88 120
87 89 189
87 90 229
88 89 149
88 90 205
89 90 115
